certificates/rado_a10_c272_N28.drat
-27 -28 0
-28 0
20 0
27 0
-25 0
-18 0
-22 0
17 0
3 0
6 0
10 0
26 0
14 0
-5 0
-15 0
-19 0
-1 0
-4 0
-8 0
-12 0
0
